243 5
10 10 10 10 10 

0 0 0 0 0 0 2 2 24 
0 0 0 0 0 0 4 3 20 21 22 
2 0 1 0 0 1 1 4 
7 0 6 0 0 3 1 5 
8 0 1 0 0 3 2 19 6 
7 0 2 0 0 3 1 7 
7 0 4 0 0 2 1 8 
6 0 2 0 0 1 1 9 
4 0 1 0 0 2 1 10 
4 0 2 0 0 3 1 11 
1 0 1 0 0 3 2 18 12 
2 0 2 0 0 3 1 13 
10 0 2 0 0 3 1 14 
10 0 2 0 0 4 1 15 
10 0 3 0 0 3 1 16 
1 0 2 0 0 2 1 17 
8 0 5 0 0 4 1 23 
8 0 2 0 0 3 1 23 
5 0 3 0 0 2 1 23 
9 0 4 0 0 1 1 23 
4 0 1 0 0 1 1 23 
4 0 4 0 0 3 1 23 
0 0 0 0 0 0 1 72 
0 0 0 0 0 0 1 25 
8 0 1 0 0 0 2 30 26 
6 0 3 0 0 0 1 27 
5 0 2 0 0 0 3 34 33 28 
9 0 3 0 0 0 1 29 
7 0 3 0 0 0 1 31 
3 0 2 0 0 0 1 31 
7 0 4 0 0 0 1 32 
9 0 1 0 0 0 1 35 
5 0 2 0 0 0 1 35 
4 0 4 0 0 0 1 35 
0 0 0 0 0 0 3 36 48 60 
0 0 0 0 0 0 2 37 39 
3 0 0 1 0 0 2 42 38 
1 0 0 3 0 0 1 40 
6 0 0 3 0 0 1 40 
7 0 0 2 0 0 2 46 41 
10 0 0 4 0 0 1 43 
4 0 0 2 0 0 2 46 45 
8 0 0 4 0 0 1 44 
9 0 0 1 0 0 1 45 
8 0 0 3 0 0 1 47 
9 0 0 2 0 0 1 47 
0 0 0 0 0 0 1 72 
0 0 0 0 0 0 2 49 58 
5 0 0 0 0 1 1 50 
3 0 0 0 0 6 1 51 
3 0 0 0 0 2 1 52 
1 0 0 0 0 2 2 57 53 
4 0 0 0 0 1 2 56 54 
2 0 0 0 0 4 1 55 
3 0 0 0 0 2 1 59 
8 0 0 0 0 3 1 59 
5 0 0 0 0 2 1 59 
1 0 0 0 0 2 1 59 
0 0 0 0 0 0 1 72 
0 0 0 0 0 0 1 61 
4 0 0 1 0 0 1 62 
5 0 0 2 0 0 1 63 
7 0 0 2 0 0 1 64 
3 0 0 3 0 0 3 70 67 65 
3 0 0 6 0 0 1 66 
7 0 0 1 0 0 2 69 68 
9 0 0 4 0 0 1 68 
10 0 0 2 0 0 1 71 
1 0 0 2 0 0 1 71 
1 0 0 2 0 0 1 71 
0 0 0 0 0 0 1 72 
0 0 0 0 0 0 4 73 85 97 109 
0 0 0 0 0 0 1 74 
1 1 0 0 0 0 1 75 
8 3 0 0 0 0 1 76 
4 3 0 0 0 0 1 77 
6 3 0 0 0 0 2 80 78 
3 3 0 0 0 0 2 83 79 
6 4 0 0 0 0 2 82 81 
7 1 0 0 0 0 2 82 81 
5 2 0 0 0 0 1 84 
9 2 0 0 0 0 1 84 
1 3 0 0 0 0 1 84 
0 0 0 0 0 0 1 121 
0 0 0 0 0 0 2 86 88 
8 1 0 0 0 0 2 90 87 
4 4 0 0 0 0 1 89 
3 1 0 0 0 0 1 89 
1 3 0 0 0 0 2 95 91 
5 3 0 0 0 0 2 95 93 
10 4 0 0 0 0 1 92 
9 2 0 0 0 0 1 93 
5 2 0 0 0 0 1 94 
7 2 0 0 0 0 1 96 
4 3 0 0 0 0 1 96 
0 0 0 0 0 0 1 121 
0 0 0 0 0 0 1 98 
2 0 1 0 0 0 1 99 
4 0 3 0 0 0 2 102 100 
6 0 3 0 0 0 1 101 
10 0 4 0 0 0 3 107 106 103 
10 0 1 0 0 0 2 107 106 
9 0 3 0 0 0 1 104 
10 0 3 0 0 0 1 105 
3 0 1 0 0 0 1 108 
1 0 5 0 0 0 1 108 
10 0 1 0 0 0 1 108 
0 0 0 0 0 0 1 121 
0 0 0 0 0 0 2 110 113 
4 0 0 1 0 0 1 111 
10 0 0 2 0 0 2 118 112 
4 0 0 1 0 0 2 119 114 
5 0 0 5 0 0 2 118 115 
6 0 0 4 0 0 1 115 
8 0 0 2 0 0 1 116 
8 0 0 2 0 0 1 117 
2 0 0 2 0 0 1 120 
2 0 0 2 0 0 1 120 
10 0 0 4 0 0 1 120 
0 0 0 0 0 0 1 121 
0 0 0 0 0 0 5 122 134 146 158 170 
0 0 0 0 0 0 2 123 129 
3 0 0 0 1 0 1 124 
7 0 0 0 3 0 2 132 125 
9 0 0 0 4 0 2 131 126 
10 0 0 0 2 0 1 127 
8 0 0 0 2 0 1 128 
4 0 0 0 3 0 1 130 
9 0 0 0 4 0 1 130 
3 0 0 0 3 0 1 133 
5 0 0 0 2 0 1 133 
9 0 0 0 1 0 1 133 
0 0 0 0 0 0 1 182 
0 0 0 0 0 0 1 135 
9 0 0 0 0 1 2 137 136 
3 0 0 0 0 2 3 142 141 139 
7 0 0 0 0 3 1 138 
5 0 0 0 0 2 2 141 139 
2 0 0 0 0 4 1 140 
5 0 0 0 0 1 1 143 
3 0 0 0 0 2 1 143 
10 0 0 0 0 3 1 143 
6 0 0 0 0 4 1 144 
2 0 0 0 0 3 1 145 
0 0 0 0 0 0 1 182 
0 0 0 0 0 0 2 147 148 
9 0 1 0 0 0 1 149 
4 0 4 0 0 0 1 149 
5 0 2 0 0 0 2 151 150 
4 0 2 0 0 0 2 156 152 
1 0 1 0 0 0 1 152 
6 0 1 0 0 0 1 153 
3 0 2 0 0 0 1 154 
4 0 6 0 0 0 1 155 
2 0 4 0 0 0 1 157 
3 0 2 0 0 0 1 157 
0 0 0 0 0 0 1 182 
0 0 0 0 0 0 3 159 164 165 
7 0 0 0 1 0 1 160 
7 0 0 0 2 0 1 161 
1 0 0 0 3 0 2 168 162 
10 0 0 0 2 0 1 163 
2 0 0 0 4 0 1 166 
6 0 0 0 1 0 1 166 
5 0 0 0 2 0 1 166 
5 0 0 0 2 0 1 167 
5 0 0 0 5 0 1 169 
1 0 0 0 3 0 1 169 
0 0 0 0 0 0 1 182 
0 0 0 0 0 0 2 171 172 
1 0 0 0 0 1 1 173 
8 0 0 0 0 2 1 173 
2 0 0 0 0 2 1 174 
8 0 0 0 0 1 2 177 175 
10 0 0 0 0 4 1 176 
6 0 0 0 0 4 2 180 178 
3 0 0 0 0 3 2 180 178 
5 0 0 0 0 5 1 179 
4 0 0 0 0 1 1 181 
3 0 0 0 0 2 1 181 
0 0 0 0 0 0 1 182 
0 0 0 0 0 0 5 183 195 207 219 231 
0 0 0 0 0 0 1 184 
4 0 1 0 0 0 2 188 185 
6 0 2 0 0 0 1 186 
3 0 2 0 0 0 1 187 
8 0 4 0 0 0 2 192 189 
10 0 3 0 0 0 1 189 
9 0 2 0 0 0 2 191 190 
4 0 2 0 0 0 1 193 
7 0 1 0 0 0 1 193 
7 0 2 0 0 0 1 193 
1 0 6 0 0 0 1 194 
0 0 0 0 0 0 1 243 
0 0 0 0 0 0 1 196 
6 0 0 0 0 1 3 202 199 197 
1 0 0 0 0 3 1 198 
9 0 0 0 0 3 2 204 200 
9 0 0 0 0 2 2 204 203 
7 0 0 0 0 3 1 201 
10 0 0 0 0 2 1 203 
4 0 0 0 0 5 1 203 
1 0 0 0 0 2 1 205 
7 0 0 0 0 1 1 205 
8 0 0 0 0 3 1 206 
0 0 0 0 0 0 1 243 
0 0 0 0 0 0 1 208 
10 0 0 1 0 0 2 210 209 
5 0 0 1 0 0 2 214 211 
5 0 0 2 0 0 2 214 212 
8 0 0 3 0 0 1 212 
4 0 0 3 0 0 1 213 
9 0 0 5 0 0 2 217 215 
10 0 0 2 0 0 2 217 215 
7 0 0 2 0 0 1 216 
10 0 0 2 0 0 1 218 
9 0 0 4 0 0 1 218 
0 0 0 0 0 0 1 243 
0 0 0 0 0 0 3 220 226 228 
9 0 0 1 0 0 2 224 221 
8 0 0 6 0 0 1 222 
5 0 0 1 0 0 1 223 
10 0 0 4 0 0 1 225 
6 0 0 1 0 0 1 225 
4 0 0 2 0 0 1 227 
8 0 0 1 0 0 1 227 
9 0 0 2 0 0 1 229 
10 0 0 3 0 0 1 229 
6 0 0 4 0 0 1 230 
0 0 0 0 0 0 1 243 
0 0 0 0 0 0 1 232 
4 0 1 0 0 0 2 234 233 
10 0 2 0 0 0 1 235 
6 0 3 0 0 0 1 235 
1 0 3 0 0 0 1 236 
6 0 2 0 0 0 2 238 237 
7 0 2 0 0 0 2 240 239 
6 0 4 0 0 0 2 240 239 
2 0 2 0 0 0 1 241 
3 0 4 0 0 0 1 241 
1 0 2 0 0 0 1 242 
0 0 0 0 0 0 1 243 
0 0 0 0 0 0 0 
